RT is False
Default write of storage_offers_DA.csv just to have a file (but constraint should be inactive)
Reading model...
...model read.
creating competitive generators file...
...competitive generators recorded.
Loading data...
.. day-ahead data with real-time VRE data read.
Compiling instance...
...instance created.
Creating Offer Mitigation (model will solve as dispatch if TRUE)...
Solving...

Welcome to IBM(R) ILOG(R) CPLEX(R) Interactive Optimizer 12.9.0.0
  with Simplex, Mixed Integer & Barrier Optimizers
5725-A06 5725-A29 5724-Y48 5724-Y49 5724-Y54 5724-Y55 5655-Y21
Copyright IBM Corp. 1988, 2019.  All Rights Reserved.

Type 'help' for a list of available commands.
Type 'help' followed by a command name for more
information on commands.

CPLEX> Logfile 'cplex.log' closed.
Logfile 'C:\Users\Luke\Desktop\test919\logs\tmp6t2adsg_.cplex.log' open.
CPLEX> New value for parallel optimization mode: -1
CPLEX> New value for mixed integer optimality gap tolerance: 0.01
CPLEX> New value for integrality tolerance: 1e-09
CPLEX> New value for feasibility tolerance: 0.01
CPLEX> New value for deterministic time limit in ticks: 75000
CPLEX> Problem 'C:\Users\Luke\Desktop\test919\logs\tmpfzm8ld8z.pyomo.lp' read.
Read time = 0.05 sec. (3.04 ticks)
CPLEX> Problem name         : C:\Users\Luke\Desktop\test919\logs\tmpfzm8ld8z.pyomo.lp
Objective sense      : Minimize
Variables            :   26081  [Nneg: 1,  Box: 21616,  Free: 4464]
Objective nonzeros   :    2496
Linear constraints   :   27515  [Less: 14006,  Greater: 4416,  Equal: 9093]
  Nonzeros           :   89219
  RHS nonzeros       :   12271

Variables            : Min LB: -5000.000        Max UB: 1000000.       
Objective nonzeros   : Min   : 15.73158         Max   : 124.0997       
Linear constraints   :
  Nonzeros           : Min   : 0.8500000        Max   : 3000.000       
  RHS nonzeros       : Min   : 0.3833333        Max   : 5000.000       
CPLEX> CPXPARAM_Parallel                                -1
CPXPARAM_Simplex_Tolerances_Feasibility          0.01
CPXPARAM_DetTimeLimit                            75000
CPXPARAM_MIP_Tolerances_MIPGap                   0.01
CPXPARAM_MIP_Tolerances_Integrality              1.0000000000000001e-09
Parallel mode: opportunistic, using up to 12 threads for concurrent optimization.
Tried aggregator 1 time.
LP Presolve eliminated 21377 rows and 15487 columns.
Aggregator did 748 substitutions.
Reduced LP has 5390 rows, 9846 columns, and 31784 nonzeros.
Presolve time = 0.05 sec. (30.20 ticks)
Symmetry aggregator did 5563 additional substitutions.

Iteration log . . .
Iteration:     1   Dual objective     =             0.000000
Perturbation started.
Iteration:   101   Dual objective     =             0.000000
Iteration:   335   Dual objective     =             1.312225
Iteration:   603   Dual objective     =             1.910417
Iteration:   853   Dual objective     =             2.058627
Iteration:  1050   Dual objective     =             2.177452
Iteration:  1322   Dual objective     =             2.234208
Iteration:  1575   Dual objective     =             2.266551
Iteration:  1796   Dual objective     =         61026.259854
Iteration:  2003   Dual objective     =        262642.591853
Iteration:  2202   Dual objective     =        278525.757890
Iteration:  2384   Dual objective     =        280670.292477
Iteration:  2641   Dual objective     =        282609.923370
Iteration:  3048   Dual objective     =        282696.498717
Removing perturbation.

Dual crossover.
  Dual:  Fixing 7 variables.
Using devex.

Primal simplex solved model.


Primal simplex - Optimal:  Objective =  2.8274893753e+05
Solution time =    0.11 sec.  Iterations = 1666 (1117)
Deterministic time = 81.80 ticks  (743.61 ticks/sec)

CPLEX> Solution written to file 'C:\Users\Luke\Desktop\test919\logs\tmp60l0ar5p.cplex.sol'.
CPLEX> Exporting results... 
...storage offer mitigation file created
Converting model to MPEC...
...converted
NOTE: initial MIP solve with only storage competitive to get feasible solution
Solving...

Welcome to IBM(R) ILOG(R) CPLEX(R) Interactive Optimizer 12.9.0.0
  with Simplex, Mixed Integer & Barrier Optimizers
5725-A06 5725-A29 5724-Y48 5724-Y49 5724-Y54 5724-Y55 5655-Y21
Copyright IBM Corp. 1988, 2019.  All Rights Reserved.

Type 'help' for a list of available commands.
Type 'help' followed by a command name for more
information on commands.

CPLEX> Logfile 'cplex.log' closed.
Logfile 'C:\Users\Luke\Desktop\test919\logs\tmpgq0gsdgw.cplex.log' open.
CPLEX> New value for parallel optimization mode: -1
CPLEX> New value for mixed integer optimality gap tolerance: 0.01
CPLEX> New value for integrality tolerance: 1e-09
CPLEX> New value for feasibility tolerance: 0.01
CPLEX> New value for deterministic time limit in ticks: 75000
CPLEX> Problem 'C:\Users\Luke\Desktop\test919\logs\tmps9cws_8i.pyomo.lp' read.
Read time = 0.22 sec. (14.78 ticks)
CPLEX> Problem name         : C:\Users\Luke\Desktop\test919\logs\tmps9cws_8i.pyomo.lp
Objective sense      : Maximize
Variables            :   53805  [Nneg: 1,  Box: 22000,  Free: 4464,
                                 Binary: 27340]
Objective nonzeros   :    9029
Linear constraints   :  123205  [Less: 41346,  Greater: 59096,  Equal: 22763]
  Nonzeros           :  291753
  RHS nonzeros       :   67445

Variables            : Min LB: -5000.000        Max UB: 1000000.       
Objective nonzeros   : Min   : 0.3833333        Max   : 2500.000       
Linear constraints   :
  Nonzeros           : Min   : 0.3833333        Max   : 1000000.       
  RHS nonzeros       : Min   : 0.3833333        Max   : 1000000.       
CPLEX> CPXPARAM_Parallel                                -1
CPXPARAM_Simplex_Tolerances_Feasibility          0.01
CPXPARAM_DetTimeLimit                            75000
CPXPARAM_MIP_Tolerances_MIPGap                   0.01
CPXPARAM_MIP_Tolerances_Integrality              1.0000000000000001e-09
Tried aggregator 3 times.
MIP Presolve eliminated 88668 rows and 18992 columns.
MIP Presolve added 3365 rows and 0 columns.
MIP Presolve modified 24818 coefficients.
Aggregator did 12967 substitutions.
Reduced MIP has 24935 rows, 21290 columns, and 71103 nonzeros.
Reduced MIP has 8410 binaries, 0 generals, 0 SOSs, and 0 indicators.
Presolve time = 0.23 sec. (173.43 ticks)
Probing fixed 403 vars, tightened 2859 bounds.
Probing time = 1.53 sec. (887.47 ticks)
Tried aggregator 2 times.
MIP Presolve eliminated 908 rows and 807 columns.
MIP Presolve modified 2213 coefficients.
Aggregator did 41 substitutions.
Reduced MIP has 23986 rows, 20442 columns, and 68352 nonzeros.
Reduced MIP has 8007 binaries, 0 generals, 0 SOSs, and 0 indicators.
Presolve time = 0.09 sec. (68.69 ticks)
Probing time = 0.05 sec. (15.63 ticks)
Clique table members: 6364.
MIP emphasis: balance optimality and feasibility.
MIP search method: dynamic search.
Parallel mode: opportunistic, using up to 12 threads.
Root relaxation solution time = 0.47 sec. (331.43 ticks)

        Nodes                                         Cuts/
   Node  Left     Objective  IInf  Best Integer    Best Bound    ItCnt     Gap

      0     0     4047.5678  1650                   4047.5678     6966         
      0     0     4047.5678   559                   Cuts: 888     7395         
      0     0     4047.5678   383                   Cuts: 445     7621         
      0     0     4047.5678   324                   Cuts: 289     7744         
      0     0     4047.5678   257                   Cuts: 124     7802         
      0     0     4047.5678   237                    Cuts: 88     7848         
      0     0     4047.5678   214                    Cuts: 55     7866         
      0     0     4047.5678   212                    Cuts: 29     7877         
      0     0     4047.5678   203                    Cuts: 23     7888         
      0     0     4047.5678   196                    Cuts: 19     7891         
      0     2     4047.5678   196                 Impl Bds: 1     7891         
Elapsed time = 17.59 sec. (7721.19 ticks, tree = 0.02 MB, solutions = 0)
    169   100     4026.7712   189                   4026.7712     8410         
    445   343     4047.5678   180                   4026.7712     9619         
    894   524     4026.7712   154                   4026.7712     9736         
   1093   967     4047.5678   155                   4026.7712     9990         
   1478  1091   -16669.7744   162                   4026.7712    10317         
*  1653+ 1166                         2714.8474     4026.7712            48.32%
   2040  1285     4026.7712   132     3960.6759     4026.7712    10433    1.67%
*  2136  1033      integral     0     4026.7712     4026.7712    10528    0.00%
*  2163  1307      integral     0     4047.5678     4026.7712    10460   -0.51%
   2290  1139     4047.5678   119     4047.5678     4026.7712    10731   -0.51%

Clique cuts applied:  19
Implied bound cuts applied:  45
Flow cuts applied:  657
Mixed integer rounding cuts applied:  36
Gomory fractional cuts applied:  39

Root node processing (before b&c):
  Real time             =   16.97 sec. (7669.20 ticks)
Parallel b&c, 12 threads:
  Real time             =    7.56 sec. (2108.70 ticks)
  Sync time (average)   =    0.19 sec.
  Wait time (average)   =    0.00 sec.
                          ------------
Total (root+branch&cut) =   24.53 sec. (9777.90 ticks)

Solution pool: 8 solutions saved.

MIP - Integer optimal solution:  Objective =  4.0475678250e+03
Solution time =   24.53 sec.  Iterations = 11268  Nodes = 2319
Deterministic time = 9778.06 ticks  (398.60 ticks/sec)

CPLEX> Incumbent solution written to file 'C:\Users\Luke\Desktop\test919\logs\tmpcl_630gn.cplex.sol'.
CPLEX> NOTE: no warmstart specified for MIP iteration, default behavior is true
NOTE: resolving with all competitive generators using storage-only solution to warmstart
Solving...

Welcome to IBM(R) ILOG(R) CPLEX(R) Interactive Optimizer 12.9.0.0
  with Simplex, Mixed Integer & Barrier Optimizers
5725-A06 5725-A29 5724-Y48 5724-Y49 5724-Y54 5724-Y55 5655-Y21
Copyright IBM Corp. 1988, 2019.  All Rights Reserved.

Type 'help' for a list of available commands.
Type 'help' followed by a command name for more
information on commands.

CPLEX> Logfile 'cplex.log' closed.
Logfile 'C:\Users\Luke\Desktop\test919\logs\tmp7kifhulb.cplex.log' open.
CPLEX> New value for parallel optimization mode: -1
CPLEX> New value for mixed integer optimality gap tolerance: 0.01
CPLEX> New value for integrality tolerance: 1e-09
CPLEX> New value for feasibility tolerance: 0.01
CPLEX> New value for deterministic time limit in ticks: 75000
CPLEX> Problem 'C:\Users\Luke\Desktop\test919\logs\tmpovoagaol.pyomo.lp' read.
Read time = 0.20 sec. (14.81 ticks)
CPLEX> MIP start file 'C:\Users\Luke\Desktop\test919\logs\tmplq6oto00.cplex.mst' read.
CPLEX> Problem name         : C:\Users\Luke\Desktop\test919\logs\tmpovoagaol.pyomo.lp
Objective sense      : Maximize
Variables            :   54525  [Nneg: 1,  Box: 22720,  Free: 4464,
                                 Binary: 27340]
Objective nonzeros   :    9725
Linear constraints   :  123205  [Less: 41346,  Greater: 59096,  Equal: 22763]
  Nonzeros           :  291753
  RHS nonzeros       :   67445

Variables            : Min LB: -5000.000        Max UB: 1000000.       
Objective nonzeros   : Min   : 0.3833333        Max   : 2500.000       
Linear constraints   :
  Nonzeros           : Min   : 0.3833333        Max   : 1000000.       
  RHS nonzeros       : Min   : 0.3833333        Max   : 1000000.       
CPLEX> CPXPARAM_Parallel                                -1
CPXPARAM_Simplex_Tolerances_Feasibility          0.01
CPXPARAM_DetTimeLimit                            75000
CPXPARAM_MIP_Tolerances_MIPGap                   0.01
CPXPARAM_MIP_Tolerances_Integrality              1.0000000000000001e-09
Warning:  No solution found from 1 MIP starts.
Retaining values of one MIP start for possible repair.
Tried aggregator 3 times.
MIP Presolve eliminated 88668 rows and 19712 columns.
MIP Presolve added 3365 rows and 0 columns.
MIP Presolve modified 24818 coefficients.
Aggregator did 12967 substitutions.
Reduced MIP has 24935 rows, 21290 columns, and 71103 nonzeros.
Reduced MIP has 8410 binaries, 0 generals, 0 SOSs, and 0 indicators.
Presolve time = 0.23 sec. (173.79 ticks)
Probing fixed 403 vars, tightened 2859 bounds.
Probing time = 1.56 sec. (887.47 ticks)
Tried aggregator 2 times.
MIP Presolve eliminated 908 rows and 807 columns.
MIP Presolve modified 2213 coefficients.
Aggregator did 41 substitutions.
Reduced MIP has 23986 rows, 20442 columns, and 68352 nonzeros.
Reduced MIP has 8007 binaries, 0 generals, 0 SOSs, and 0 indicators.
Presolve time = 0.09 sec. (68.69 ticks)
Probing time = 0.05 sec. (15.63 ticks)
Clique table members: 6364.
MIP emphasis: balance optimality and feasibility.
MIP search method: dynamic search.
Parallel mode: opportunistic, using up to 12 threads.
Root relaxation solution time = 0.63 sec. (401.41 ticks)

        Nodes                                         Cuts/
   Node  Left     Objective  IInf  Best Integer    Best Bound    ItCnt     Gap

      0     0    51928.9697  1743                  51928.9697     7168         
      0     0    51735.6502   615                   Cuts: 840     7601         
      0     0    51667.9615   502                   Cuts: 524     7825         
      0     0    51667.9615   415                   Cuts: 306     7938         
      0     0    51650.5283   377                   Cuts: 166     7991         
      0     0    51650.0274   337                   Cuts: 155     8036         
      0     0    51650.0274   315                   Cuts: 104     8058         
      0     0    51650.0274   306                    Cuts: 91     8070         
      0     0    51650.0274   307                    Cuts: 86     8082         
      0     0    51650.0274   301                    Cuts: 76     8087         
Repair heuristic found nothing.
      0     6    45236.1942   284                  51633.9740     8121         
Elapsed time = 15.19 sec. (7043.86 ticks, tree = 0.02 MB, solutions = 0)
    128    36  -200924.3136   320                  51478.0217     8846         
    284   160    33777.7940   269                  51478.0217    11657         
    527   220    infeasible                        51478.0217    12686         
    652   298    33702.3110   245                  51478.0217    16660         
    873   323    40124.9623   256                  51478.0217    17641         
   1146   391    40233.3820   235                  51478.0217    20641         
   1414   520    26078.7485   207                  51478.0217    24974         
   1686   772    41894.0294   162                  51478.0217    25957         
   1947  1191   -14562.0211   173                  51478.0217    27505         
   3389  2073   -14562.8533   144                  51478.0217    27831         
Elapsed time = 28.50 sec. (10148.54 ticks, tree = 16.09 MB, solutions = 0)
*  3535+ 1417                        41770.9179    51478.0217            23.24%
   4167  1652        cutoff          41770.9179    47380.2706    41907   13.43%
   4414    54    42080.3572    86    41770.9179    47373.9332    42491   13.41%
   5178   163        cutoff          41770.9179    45896.4292    49181    9.88%

GUB cover cuts applied:  2
Clique cuts applied:  21
Cover cuts applied:  25
Implied bound cuts applied:  76
Flow cuts applied:  775
Mixed integer rounding cuts applied:  93
Zero-half cuts applied:  4
Gomory fractional cuts applied:  103

Root node processing (before b&c):
  Real time             =   14.84 sec. (7023.43 ticks)
Parallel b&c, 12 threads:
  Real time             =   38.38 sec. (13224.54 ticks)
  Sync time (average)   =    1.00 sec.
  Wait time (average)   =    0.04 sec.
                          ------------
Total (root+branch&cut) =   53.22 sec. (20247.96 ticks)

Solution pool: 2 solutions saved.

MIP - Integer optimal, tolerance (0.01/1e-06):  Objective =  4.1770917900e+04
Current MIP best bound =  4.2183614901e+04 (gap = 412.697, 0.99%)
Solution time =   53.22 sec.  Iterations = 49535  Nodes = 5317 (160)
Deterministic time = 20248.12 ticks  (380.48 ticks/sec)

CPLEX> Incumbent solution written to file 'C:\Users\Luke\Desktop\test919\logs\tmpcp__j1he.cplex.sol'.
CPLEX> Exporting results... 
